Geographic Exponential Decay
80 217 207 209 66 148 300 236 28 231 80 308 61 166 29 83 112 159 63 284 5 184 130 95 291 177 86 278 190 196 304 254 141 84 43 310 129 189 16 297 180 285 154 14 107 132 212 246 106 142 280 105 233 94 195 2 53 147 101 59 68 31 307 250 163 70 187 293 164 228 128 109 88 204 261 229 62 318 157 79 170
p edge 320 320
e 0 7 1.0
e 1 126 1.0
e 1 0 1.0
e 2 201 20.0
e 2 108 84.0
e 2 316 81.0
e 2 1 32.0
e 3 314 3.0
e 3 2 3.0
e 4 38 1.0
e 4 3 1.0
e 5 186 9.0
e 5 277 11.0
e 5 225 76.0
e 5 4 57.0
e 6 255 5.0
e 6 5 51.0
e 8 208 14.0
e 8 6 4.0
e 9 142 82.0
e 9 8 2.0
e 10 252 5.0
e 10 9 1.0
e 11 190 34.0
e 11 10 5.0
e 12 72 10.0
e 12 11 2.0
e 13 159 40.0
e 14 308 21.0
e 14 231 35.0
e 14 304 59.0
e 15 204 33.0
e 16 112 42.0
e 16 256 34.0
e 16 226 27.0
e 17 220 1.0
e 17 12 3.0
e 18 187 37.0
e 18 17 2.0
e 19 188 3.0
e 19 18 5.0
e 20 109 40.0
e 20 19 1.0
e 21 237 5.0
e 21 20 5.0
e 22 156 5.0
e 22 21 2.0
e 23 80 59.0
e 23 22 9.0
e 24 292 4.0
e 24 23 5.0
e 25 127 1.0
e 25 24 1.0
e 26 278 75.0
e 26 25 3.0
e 27 233 20.0
e 28 265 3.0
e 28 172 77.0
e 28 44 89.0
e 28 26 54.0
e 29 102 62.0
e 29 248 48.0
e 29 214 65.0
e 29 28 75.0
e 30 275 1.0
e 30 29 70.0
e 31 71 92.0
e 31 238 44.0
e 31 291 69.0
e 32 269 5.0
e 32 30 1.0
e 33 77 3.0
e 33 32 2.0
e 34 160 12.0
e 34 33 12.0
e 35 93 1.0
e 35 34 5.0
e 36 109 84.0
e 37 308 72.0
e 39 43 63.0
e 39 35 1.0
e 40 110 11.0
e 40 39 2.0
e 41 150 3.0
e 41 40 2.0
e 42 43 68.0
e 43 104 60.0
e 45 133 19.0
e 45 41 19.0
e 46 47 5.0
e 46 45 23.0
e 48 270 6.0
e 48 46 1.0
e 49 224 1.0
e 49 48 1.0
e 50 162 1.0
e 50 49 2.0
e 51 105 15.0
e 51 50 1.0
e 52 122 3.0
e 52 51 3.0
e 53 257 35.0
e 53 259 42.0
e 53 289 17.0
e 53 52 38.0
e 54 146 7.0
e 54 53 95.0
e 55 209 83.0
e 55 54 1.0
e 56 57 9.0
e 56 55 1.0
e 58 119 5.0
e 58 56 7.0
e 59 86 4.0
e 59 118 100.0
e 59 62 3.0
e 60 107 66.0
e 61 154 36.0
e 61 62 69.0
e 61 178 14.0
e 62 182 49.0
e 63 157 68.0
e 63 219 99.0
e 63 95 27.0
e 63 58 30.0
e 64 67 1.0
e 64 63 10.0
e 65 317 4.0
e 65 64 3.0
e 66 112 78.0
e 66 68 35.0
e 66 69 9.0
e 68 197 67.0
e 68 101 96.0
e 70 120 20.0
e 70 73 35.0
e 70 74 14.0
e 70 65 46.0
e 75 113 1.0
e 75 70 18.0
e 76 244 1.0
e 76 75 2.0
e 78 79 85.0
e 79 170 64.0
e 79 284 38.0
e 80 81 61.0
e 80 288 57.0
e 82 148 66.0
e 82 76 1.0
e 83 258 76.0
e 83 276 4.0
e 83 227 19.0
e 83 82 78.0
e 84 221 58.0
e 84 101 9.0
e 84 308 73.0
e 85 312 3.0
e 85 83 33.0
e 86 116 75.0
e 86 196 55.0
e 87 282 1.0
e 87 85 3.0
e 88 134 65.0
e 88 204 98.0
e 88 147 1.0
e 89 303 1.0
e 89 87 1.0
e 90 180 93.0
e 90 89 2.0
e 91 123 1.0
e 91 90 3.0
e 92 259 47.0
e 94 114 5.0
e 94 109 82.0
e 94 222 35.0
e 95 286 3.0
e 95 311 18.0
e 96 240 5.0
e 96 91 2.0
e 97 278 9.0
e 98 135 1.0
e 98 96 2.0
e 99 100 1.0
e 99 98 1.0
e 101 293 81.0
e 103 105 16.0
e 105 215 73.0
e 106 233 35.0
e 106 239 87.0
e 106 107 63.0
e 107 307 45.0
e 111 112 90.0
e 115 249 1.0
e 115 99 2.0
e 117 121 1.0
e 117 115 1.0
e 124 125 18.0
e 124 117 1.0
e 128 129 48.0
e 128 130 10.0
e 128 242 51.0
e 129 145 71.0
e 129 262 33.0
e 130 243 22.0
e 130 189 73.0
e 131 132 39.0
e 131 124 4.0
e 132 173 91.0
e 132 136 73.0
e 137 263 4.0
e 137 131 2.0
e 138 139 1.0
e 138 137 2.0
e 140 204 50.0
e 141 260 66.0
e 141 142 18.0
e 141 189 87.0
e 142 154 61.0
e 143 315 11.0
e 143 138 12.0
e 144 194 1.0
e 144 143 7.0
e 147 300 38.0
e 147 309 18.0
e 148 149 33.0
e 148 151 70.0
e 152 153 1.0
e 152 144 1.0
e 154 247 58.0
e 155 157 90.0
e 157 158 9.0
e 159 254 59.0
e 159 161 57.0
e 163 250 40.0
e 163 310 17.0
e 163 164 53.0
e 164 165 13.0
e 164 166 54.0
e 166 307 38.0
e 166 267 29.0
e 167 168 5.0
e 167 152 6.0
e 169 174 1.0
e 169 167 1.0
e 170 236 20.0
e 170 171 45.0
e 175 176 3.0
e 175 169 1.0
e 177 179 29.0
e 177 278 74.0
e 177 191 66.0
e 180 181 89.0
e 180 302 62.0
e 183 228 90.0
e 184 185 7.0
e 184 213 59.0
e 184 187 21.0
e 187 245 80.0
e 189 216 56.0
e 190 261 57.0
e 190 192 37.0
e 193 246 74.0
e 195 196 72.0
e 195 197 51.0
e 195 228 26.0
e 196 305 100.0
e 198 232 2.0
e 198 175 3.0
e 199 200 3.0
e 199 198 1.0
e 202 203 5.0
e 202 199 1.0
e 205 217 94.0
e 206 207 68.0
e 207 209 68.0
e 207 210 49.0
e 209 211 29.0
e 212 217 4.0
e 212 218 63.0
e 212 223 22.0
e 217 228 13.0
e 229 230 27.0
e 229 231 30.0
e 229 233 76.0
e 231 298 82.0
e 234 290 14.0
e 234 202 7.0
e 235 236 20.0
e 236 241 36.0
e 246 250 1.0
e 246 251 67.0
e 250 253 40.0
e 254 299 84.0
e 254 261 40.0
e 261 264 26.0
e 266 268 5.0
e 266 234 1.0
e 271 272 6.0
e 271 266 2.0
e 273 318 18.0
e 274 279 1.0
e 274 271 1.0
e 280 281 38.0
e 280 283 32.0
e 280 284 90.0
e 284 285 74.0
e 285 287 20.0
e 285 291 19.0
e 291 293 73.0
e 293 294 30.0
e 295 296 3.0
e 295 274 1.0
e 297 300 51.0
e 297 301 91.0
e 297 304 66.0
e 300 304 12.0
e 306 307 86.0
e 310 313 36.0
e 310 318 89.0
e 318 319 21.0
